\ENCODING=ISO-8859-1
\Problem name: IloCplex

Minimize
 obj1: Y_1 + Y_2
Subject To
 c1:  2 X_1 + X_3 >= 3
 c2:  X_3 + 3 X_2 >= 4
 c3:  4 X_4 >= 4
 c4:  2 X_3 + X_4 >= 3
 c5:  3 X_1 + 3 X_2 >= 6
 c6:  Y_1 + Y_2 - X_1 - X_3 >= 0
 c7:  >= 0
 c8:  >= 0
 c9:  Y_2 - X_4 >= 0
 c10: Y_1 - X_2 >= 0
End
